105
0 82 22 37 29 49 97 34 93 100 
46 57 38 92 12 103 88 69 83 4 
67 79 20 104 80 53 95 101 32 17 
8 76 61 65 42 90 66 27 15 81 
84 102 70 18 75 60 9 87 56 23 
1 25 78 85 24 2 54 98 19 10 
21 48 86 13 5 62 72 44 77 33 
45 41 7 16 50 99 68 51 91 94 
30 73 96 47 26 31 43 14 40 39 
89 55 58 6 3 52 11 35 71 64 
74 28 59 63 36 
